p cnf 121 316
-62 -124 -59 -119 -53 -115 -50 -49 -109 -107 -42 -105 -39 -96 -28 -91 -25 -88 -86 -22 -81 -13 -76 -10 -69 -67 -2 0
-62 -60 -124 -117 -116 -53 -51 -48 -110 -108 -42 -103 -38 -98 -29 -91 -24 -82 -14 -11 -69 -68 -3 0
-62 -124 -59 -117 -116 -52 -51 -110 -44 -107 -103 -36 -98 -91 -90 -27 -26 -21 -82 -67 -14 -77 -76 -10 -69 -3 0
-63 -124 -59 -119 -116 -52 -109 -44 -107 -40 -103 -98 -32 -91 -90 -23 -21 -82 -79 -14 -11 -74 -69 -68 -3 0
-62 -124 -59 -119 -116 -52 -51 -109 -108 -42 -103 -35 -98 -94 -29 -88 -24 -21 -82 -14 -76 -11 -69 -68 -3 0
-62 -124 -59 -119 -54 -116 -51 -47 -109 -44 -107 -103 -36 -98 -33 -93 -90 -26 -21 -82 -80 -14 -76 -11 -69 -68 -3 0
-62 -124 -59 -117 -116 -53 -51 -109 -44 -107 -103 -36 -98 -91 -90 -27 -26 -86 -21 -14 -77 -76 -11 -69 -68 -3 0
-62 -124 -59 -117 -52 -114 -50 -47 -109 -108 -43 -105 -36 -98 -33 -92 -26 -88 -22 -82 -67 -14 -77 -76 -11 -69 -3 0
-62 -124 -59 -119 -116 -52 -51 -110 -108 -42 -105 -39 -98 -28 -91 -25 -88 -21 -83 -81 -14 -76 -10 -69 -68 -3 0
-62 -124 -59 -119 -116 -51 -109 -108 -45 -44 -103 -36 -98 -32 -91 -90 -23 -22 -82 -81 -67 -13 -11 -74 -69 -3 0
-62 -124 -59 -56 -117 -114 -50 -111 -45 -107 -42 -103 -35 -96 -29 -91 -90 -24 -86 -21 -13 -76 -10 -69 -67 -2 0
-64 -124 -59 -56 -117 -116 -111 -45 -107 -42 -105 -40 -98 -31 -91 -90 -23 -21 -82 -80 -14 -10 -69 -68 -2 0
-62 -124 -59 -119 -52 -115 -50 -110 -44 -107 -103 -39 -98 -91 -90 -27 -26 -22 -82 -78 -14 -76 -11 -69 -68 -3 0
-124 -59 -56 -117 -116 -50 -47 -109 -108 -44 -41 -103 -98 -34 -91 -90 -26 -86 -21 -67 -80 -14 -76 -11 -69 -3 0
-62 -124 -59 -117 -52 -114 -50 -47 -109 -108 -44 -103 -36 -98 -33 -92 -90 -26 -22 -82 -80 -14 -76 -10 -69 -68 -3 0
-62 -124 -59 -121 -116 -52 -50 -47 -109 -108 -44 -103 -36 -98 -30 -91 -90 -26 -21 -82 -80 -14 -76 -11 -69 -68 -3 0
-62 -124 -59 -117 -116 -50 -109 -108 -42 -105 -39 -98 -28 -91 -25 -88 -21 -82 -81 -14 -76 -10 -69 -68 0
-62 -124 -59 -119 -53 -116 -47 -109 -108 -44 -103 -36 -98 -34 -93 -90 -26 -21 -82 -80 -14 -76 -11 -69 -68 -3 0
-62 -124 -59 -56 -117 -116 -50 -111 -45 -108 -42 -103 -36 -96 -28 -91 -90 -25 -86 -22 -81 -13 -76 -10 -69 -67 -2 0
-62 -124 -59 -56 -117 -115 -50 -109 -45 -107 -42 -105 -40 -98 -31 -91 -90 -23 -86 -22 -80 -13 -76 -10 -69 -67 -2 0
-62 -124 -59 -121 -53 -116 -51 -109 -44 -107 -103 -36 -98 -91 -27 -26 -88 -21 -83 -77 -76 -13 -10 -69 -67 -2 0
-62 -124 -59 -54 -117 -116 -50 -111 -45 -107 -42 -103 -36 -98 -32 -91 -88 -23 -21 -84 -79 -13 -75 -10 -69 -68 -2 0
-62 -124 -59 -54 -117 -116 -50 -110 -45 -108 -44 -40 -103 -98 -34 -91 -90 -26 -22 -82 -80 -14 -76 -10 -69 -68 -3 0
-62 -124 -59 -119 -116 -52 -51 -109 -108 -44 -40 -103 -98 -33 -91 -26 -21 -82 -14 -77 -76 -10 -69 -68 -3 0
-62 -124 -59 -117 -116 -53 -51 -109 -44 -107 -103 -39 -98 -91 -90 -27 -26 -86 -21 -78 -14 -76 -11 -69 -68 -3 0
-62 -124 -59 -117 -116 -53 -50 -109 -108 -44 -40 -103 -98 -30 -91 -90 -26 -86 -21 -80 -14 -76 -11 -69 -68 -3 0
-62 -124 -59 -117 -116 -52 -50 -111 -46 -108 -44 -103 -36 -98 -33 -91 -90 -26 -85 -21 -77 -76 -13 -10 -69 -68 -2 0
-62 -124 -59 -117 -53 -115 -50 -111 -108 -44 -105 -36 -34 -97 -91 -26 -89 -86 -22 -80 -13 -76 -10 -69 -67 -2 0
-62 -124 -59 -56 -117 -115 -50 -109 -45 -107 -42 -105 -36 -98 -31 -91 -90 -23 -86 -22 -79 -13 -76 -10 -69 -67 -2 0
-124 -59 -117 -116 -53 -51 -109 -44 -107 -103 -36 -97 -91 -90 -27 -26 -86 -21 -77 -76 -13 -10 -69 -68 -2 0
-62 -124 -59 -117 -116 -52 -51 -110 -108 -44 -103 -36 -98 -34 -93 -90 -26 -21 -82 -81 -14 -76 -11 -69 -68 -3 0
-60 -124 -117 -116 -53 -51 -48 -110 -108 -42 -103 -35 -98 -29 -91 -24 -82 -14 -11 -69 -68 -3 0
-62 -60 -124 -117 -116 -52 -50 -47 -109 -108 -44 -40 -103 -98 -31 -91 -90 -23 -22 -82 -80 -14 -76 -11 -71 -68 -3 0
-63 -124 -59 -56 -117 -116 -50 -47 -109 -108 -44 -105 -36 -34 -96 -91 -90 -26 -86 -21 -80 -14 -76 -11 -69 -68 -3 0
-62 -124 -59 -119 -116 -52 -51 -109 -108 -45 -42 -105 -39 -98 -28 -91 -90 -25 -21 -82 -81 -13 -76 -10 -69 -68 -2 0
-62 -124 -59 -119 -54 -116 -50 -49 -111 -108 -44 -40 -103 -98 -31 -91 -90 -23 -86 -21 -81 -13 -76 -10 -69 -68 -2 0
-62 -124 -59 -117 -116 -52 -51 -109 -44 -107 -103 -36 -98 -30 -91 -90 -26 -21 -82 -80 -14 -76 -11 -69 -68 -3 0
-64 -124 -59 -55 -117 -115 -50 -47 -109 -108 -44 -105 -40 -98 -31 -93 -90 -23 -22 -82 -81 -13 -76 -11 -70 -68 -2 0
-63 -60 -124 -56 -119 -115 -50 -109 -108 -45 -42 -105 -36 -98 -28 -91 -90 -25 -86 -22 -81 -13 -74 -10 -69 -67 -2 0
-62 -124 -59 -117 -52 -51 -114 -113 -45 -107 -42 -103 -35 -98 -29 -91 -24 -86 -21 -13 -10 -69 -68 -2 0
-62 -124 -59 -117 -116 -52 -51 -47 -109 -108 -44 -103 -36 -98 -30 -91 -90 -26 -21 -84 -80 -14 -76 -11 -69 -68 -3 0
-64 -124 -59 -120 -52 -115 -50 -109 -108 -45 -44 -103 -36 -98 -34 -91 -90 -26 -21 -82 -14 -76 -11 -69 -68 -3 0
-62 -124 -59 -117 -116 -52 -50 -48 -110 -108 -44 -40 -103 -98 -34 -91 -90 -26 -21 -82 -80 -14 -76 -10 -69 -68 -3 0
-62 -124 -59 -120 -56 -116 -50 -109 -45 -107 -44 -105 -36 -96 -91 -90 -27 -26 -86 -21 -77 -76 -13 -10 -69 -68 -2 0
-62 -124 -59 -119 -116 -52 -50 -47 -109 -107 -43 -40 -103 -98 -32 -91 -90 -23 -21 -82 -67 -78 -14 -11 -74 -69 -3 0
-62 -60 -124 -117 -116 -52 -50 -109 -108 -43 -40 -103 -98 -32 -91 -90 -23 -21 -82 -81 -67 -14 -11 -74 -70 -3 0
-62 -124 -59 -119 -53 -116 -50 -47 -109 -108 -44 -103 -36 -98 -30 -91 -90 -26 -21 -82 -80 -14 -76 -11 -69 -68 -3 0
-62 -124 -59 -117 -53 -115 -50 -47 -109 -108 -44 -103 -36 -98 -31 -91 -90 -23 -21 -82 -79 -14 -76 -11 -69 -68 -3 0
-62 -124 -59 -117 -116 -52 -51 -110 -44 -107 -40 -103 -98 -34 -93 -90 -26 -21 -82 -80 -14 -76 -11 -69 -68 -3 0
-62 -124 -59 -120 -116 -52 -50 -109 -44 -107 -103 -39 -98 -91 -27 -26 -88 -21 -84 -77 -76 -13 -10 -69 -67 -2 0
-62 -124 -59 -56 -117 -116 -50 -109 -108 -44 -40 -103 -98 -32 -91 -90 -23 -21 -82 -78 -14 -76 -10 -69 -68 -3 0
-62 -124 -59 -54 -117 -116 -51 -111 -45 -108 -44 -103 -36 -97 -91 -27 -89 -26 -86 -21 -77 -76 -13 -10 -69 -68 -2 0
-124 -59 -47 -109 -108 -42 -103 -36 -97 -31 -91 -90 -23 -86 -21 -81 -14 -76 -11 -69 -68 0
-62 -124 -59 -117 -53 -114 -50 -111 -45 -107 -42 -103 -37 -98 -29 -91 -90 -24 -21 -82 -13 -76 -10 -69 -68 -2 0
-64 -124 -58 -117 -116 -52 -51 -109 -108 -45 -42 -105 -36 -98 -93 -28 -25 -88 -21 -82 -81 -14 -76 -10 -69 -68 -3 0
-62 -124 -59 -117 -116 -52 -50 -109 -108 -45 -42 -105 -36 -98 -28 -91 -25 -88 -22 -82 -81 -14 -76 -10 -69 -68 -3 0
-64 -124 -59 -117 -52 -115 -50 -47 -109 -44 -107 -105 -36 -98 -33 -91 -90 -26 -21 -82 -80 -14 -76 -11 -71 -68 -3 0
-62 -124 -59 -119 -54 -116 -50 -47 -109 -108 -44 -105 -36 -98 -33 -91 -90 -26 -21 -82 -80 -14 -76 -11 -69 -68 -3 0
-62 -124 -59 -119 -116 -52 -51 -110 -45 -44 -107 -105 -40 -97 -31 -91 -90 -23 -86 -21 -80 -14 -76 -10 -70 -68 -3 0
-62 -124 -59 -117 -116 -52 -50 -110 -108 -42 -105 -36 -98 -28 -91 -25 -88 -21 -82 -81 -14 -76 -10 -69 -68 -3 0
-63 -124 -59 -56 -119 -115 -51 -111 -45 -107 -42 -103 -37 -98 -29 -91 -89 -24 -86 -21 -13 -10 -69 -67 -2 0
-62 -124 -59 -56 -119 -116 -50 -111 -45 -108 -42 -103 -36 -98 -32 -91 -90 -23 -86 -21 -81 -13 -75 -10 -69 -68 -3 0
-62 -124 -59 -117 -116 -53 -51 -109 -107 -42 -103 -37 -96 -29 -91 -88 -24 -86 -21 -13 -76 -10 -69 -68 -2 0
-64 -124 -59 -56 -117 -116 -51 -111 -45 -108 -42 -40 -103 -98 -93 -29 -24 -87 -21 -82 -14 -76 -11 -70 -68 -2 0
-62 -124 -59 -117 -116 -53 -50 -109 -108 -43 -105 -36 -98 -28 -91 -25 -88 -21 -82 -13 -76 -10 -69 -68 -2 0
-62 -124 -58 -117 -116 -52 -51 -47 -109 -44 -107 -103 -39 -98 -91 -27 -89 -26 -21 -82 -67 -78 -14 -76 -11 -69 -3 0
-62 -124 -59 -56 -119 -116 -109 -45 -107 -44 -103 -36 -98 -91 -90 -27 -26 -21 -82 -77 -76 -13 -10 -69 -68 -2 0
-62 -124 -59 -121 -53 -116 -50 -111 -45 -107 -42 -105 -39 -98 -94 -28 -90 -25 -22 -82 -81 -13 -76 -10 -69 -67 -2 0
-62 -124 -59 -117 -115 -50 -109 -45 -107 -44 -40 -103 -98 -32 -91 -90 -23 -22 -82 -78 -13 -11 -74 -71 -68 0
-62 -60 -124 -117 -116 -53 -51 -109 -107 -42 -105 -36 -98 -32 -91 -90 -23 -21 -82 -14 -74 -10 -69 -68 -3 0
-62 -124 -59 -117 -116 -53 -51 -109 -108 -45 -44 -103 -36 -98 -91 -90 -27 -26 -86 -22 -77 -76 -13 -10 -69 -68 -2 0
-62 -124 -59 -54 -117 -116 -51 -47 -109 -44 -107 -103 -36 -98 -30 -91 -90 -26 -82 -78 -14 -76 -11 -69 -68 -3 0
-63 -124 -59 -117 -116 -52 -50 -110 -44 -107 -40 -103 -33 -96 -91 -90 -26 -86 -21 -14 -77 -76 -10 -69 -68 -3 0
-62 -124 -59 -56 -117 -116 -50 -109 -45 -107 -44 -40 -103 -98 -32 -91 -90 -23 -86 -21 -79 -14 -76 -10 -69 -68 -3 0
-62 -124 -59 -119 -54 -116 -50 -110 -44 -107 -103 -36 -98 -32 -91 -90 -23 -21 -82 -80 -14 -76 -10 -69 -68 -3 0
-62 -124 -59 -120 -53 -115 -50 -47 -109 -108 -44 -103 -36 -98 -32 -91 -90 -23 -86 -21 -14 -76 -11 -69 -68 -3 0
-62 -124 -59 -56 -117 -116 -51 -109 -108 -45 -44 -103 -36 -96 -91 -90 -27 -26 -86 -22 -77 -76 -13 -10 -69 -68 -2 0
-62 -124 -59 -54 -117 -115 -50 -49 -109 -108 -42 -103 -35 -97 -29 -91 -24 -87 -86 -21 -13 -76 -10 -69 -68 -2 0
-62 -124 -59 -117 -52 -115 -50 -111 -45 -107 -42 -105 -36 -98 -28 -91 -25 -88 -86 -21 -81 -13 -10 -69 -68 -2 0
-62 -124 -59 -117 -116 -52 -50 -111 -45 -107 -43 -40 -103 -98 -32 -93 -90 -23 -21 -82 -81 -13 -66 -75 -10 -69 -2 0
-62 -124 -59 -117 -116 -52 -51 -109 -108 -45 -42 -105 -40 -98 -31 -93 -88 -23 -21 -82 -81 -14 -76 -10 -69 -68 -3 0
-62 -124 -59 -121 -116 -52 -51 -109 -45 -107 -43 -103 -36 -98 -32 -91 -90 -23 -21 -82 -67 -78 -13 -11 -74 -69 -3 0
-62 -124 -59 -119 -54 -116 -50 -111 -45 -107 -42 -103 -37 -98 -29 -91 -90 -24 -21 -82 -13 -76 -10 -69 -68 -2 0
-62 -124 -59 -117 -116 -52 -51 -47 -109 -107 -42 -103 -37 -98 -93 -29 -89 -24 -22 -82 -67 -14 -11 -69 -3 0
-62 -124 -59 -120 -53 -116 -50 -111 -45 -108 -44 -40 -103 -98 -33 -91 -26 -87 -86 -22 -77 -76 -13 -10 -69 -68 -2 0
-62 -124 -59 -56 -117 -51 -114 -109 -45 -107 -44 -105 -36 -98 -91 -90 -27 -26 -86 -22 -78 -13 -76 -10 -69 -68 -2 0
-62 -124 -59 -119 -54 -116 -51 -47 -109 -108 -44 -40 -103 -98 -33 -93 -90 -26 -21 -82 -79 -14 -76 -11 -69 -68 -3 0
-63 -124 -59 -56 -117 -115 -50 -109 -108 -45 -42 -105 -36 -96 -32 -91 -88 -23 -86 -21 -77 -13 -75 -10 -69 -68 -2 0
-63 -124 -59 -117 -116 -52 -51 -47 -109 -44 -107 -103 -36 -98 -33 -91 -90 -26 -21 -82 -14 -77 -76 -11 -69 -68 -3 0
-62 -124 -59 -56 -117 -116 -51 -109 -108 -45 -44 -103 -36 -98 -33 -91 -26 -88 -21 -82 -78 -14 -76 -10 -69 -68 -3 0
-62 -124 -59 -117 -53 -114 -50 -47 -109 -108 -44 -103 -36 -98 -33 -91 -90 -26 -21 -82 -78 -14 -76 -11 -69 -68 -3 0
-62 -124 -59 -119 -55 -116 -50 -111 -45 -108 -42 -40 -103 -98 -29 -91 -90 -24 -21 -82 -80 -13 -75 -10 -69 -68 -2 0
-62 -124 -59 -117 -52 -114 -50 -111 -45 -107 -42 -40 -103 -98 -29 -91 -90 -24 -21 -82 -14 -76 -11 -69 -68 -3 0
-62 -60 -124 -119 -116 -52 -50 -47 -109 -108 -44 -103 -36 -98 -34 -91 -90 -26 -21 -82 -81 -14 -76 -11 -69 -68 -3 0
-62 -124 -59 -119 -116 -52 -50 -111 -44 -107 -103 -39 -98 -91 -27 -26 -88 -86 -21 -77 -76 -13 -10 -69 -68 -2 0
-64 -60 -124 -120 -54 -116 -50 -109 -108 -44 -105 -36 -98 -31 -91 -90 -23 -86 -21 -78 -14 -76 -11 -72 -68 -3 0
-64 -124 -59 -119 -53 -116 -50 -109 -45 -107 -44 -103 -39 -98 -91 -90 -27 -26 -21 -82 -77 -76 -13 -10 -69 -67 -2 0
-64 -124 -58 -117 -116 -52 -51 -109 -108 -45 -42 -103 -39 -98 -28 -91 -25 -88 -21 -82 -81 -14 -76 -10 -69 -3 -66 0
-62 -124 -59 -121 -116 -52 -50 -111 -45 -108 -42 -105 -36 -98 -31 -91 -90 -23 -21 -82 -79 -13 -76 -10 -69 -68 -2 0
-62 -60 -124 -119 -116 -52 -50 -47 -109 -108 -44 -40 -103 -98 -30 -91 -90 -26 -22 -82 -78 -14 -76 -11 -69 -68 -3 0
-62 -124 -58 -117 -52 -114 -50 -109 -108 -45 -44 -103 -36 -98 -31 -91 -90 -23 -21 -82 -78 -14 -76 -11 -70 -68 -3 0
-64 -60 -124 -119 -116 -52 -51 -111 -47 -44 -107 -40 -103 -98 -33 -91 -26 -88 -21 -82 -78 -14 -76 -10 -69 -68 -3 0
-64 -124 -59 -117 -52 -115 -50 -109 -44 -107 -40 -103 -98 -30 -91 -90 -26 -21 -82 -67 -80 -14 -76 -11 -69 -3 0
-62 -124 -59 -119 -54 -116 -50 -111 -45 -108 -42 -105 -36 -98 -93 -28 -25 -88 -21 -82 -81 -13 -76 -10 -70 -68 -2 0
-62 -124 -59 -119 -55 -116 -50 -111 -45 -108 -42 -40 -103 -98 -32 -91 -88 -23 -21 -82 -80 -13 -74 -10 -69 -68 -2 0
-62 -124 -59 -56 -117 -116 -109 -44 -107 -103 -36 -98 -32 -91 -90 -23 -21 -82 -67 -78 -14 -76 -10 -69 -3 0
-62 -124 -59 -119 -116 -52 -51 -110 -45 -44 -107 -103 -36 -97 -31 -91 -90 -23 -86 -21 -79 -14 -76 -10 -70 -68 -3 0
-62 -124 -59 -117 -116 -53 -51 -47 -109 -108 -43 -105 -36 -98 -31 -91 -90 -23 -22 -82 -67 -80 -14 -76 -11 -70 -3 0
-62 -124 -59 -56 -117 -116 -51 -111 -45 -108 -42 -103 -39 -98 -28 -91 -90 -25 -86 -22 -81 -13 -76 -10 -69 -67 -2 0
-64 -124 -59 -117 -116 -52 -50 -109 -44 -107 -103 -36 -98 -30 -91 -90 -26 -86 -21 -80 -14 -76 -10 -69 -68 -3 0
-62 -124 -59 -117 -116 -52 -50 -47 -109 -44 -107 -40 -103 -98 -34 -93 -90 -26 -21 -82 -80 -14 -76 -11 -69 -68 -3 0
-124 -59 -119 -116 -52 -50 -47 -109 -107 -43 -103 -36 -98 -32 -91 -90 -23 -21 -82 -80 -14 -75 -11 -69 -68 -3 0
-62 -124 -59 -117 -52 -114 -50 -47 -109 -108 -42 -103 -36 -98 -31 -91 -90 -23 -21 -82 -79 -14 -76 -11 -69 -68 -3 0
-62 -60 -124 -119 -116 -52 -50 -47 -109 -44 -107 -103 -36 -98 -30 -91 -90 -26 -22 -82 -14 -77 -76 -11 -69 -68 -3 0
-62 -124 -59 -117 -116 -52 -111 -45 -108 -43 -40 -103 -98 -32 -93 -90 -23 -22 -82 -78 -13 -76 -10 -69 -68 -2 0
-62 -124 -59 -120 -116 -52 -50 -111 -45 -44 -107 -103 -36 -33 -96 -91 -26 -87 -86 -22 -77 -76 -13 -10 -69 -68 -2 0
-62 -124 -58 -56 -117 -116 -50 -47 -109 -108 -42 -103 -37 -96 -29 -91 -88 -24 -86 -21 -13 -76 -10 -69 -68 -2 0
-62 -124 -59 -54 -117 -116 -51 -47 -109 -44 -107 -103 -38 -98 -30 -91 -90 -26 -82 -78 -14 -76 -11 -68 -3 0
-62 -124 -59 -56 -117 -116 -50 -111 -45 -108 -44 -103 -36 -34 -97 -91 -90 -26 -86 -22 -77 -76 -13 -10 -69 -68 -2 0
-64 -124 -59 -117 -52 -115 -50 -47 -109 -107 -43 -40 -103 -98 -33 -91 -90 -26 -82 -78 -14 -76 -11 -69 -68 -3 0
-64 -60 -124 -120 -54 -116 -51 -109 -44 -107 -105 -40 -98 -31 -91 -90 -23 -86 -21 -67 -78 -14 -76 -11 -71 -3 0
-62 -124 -59 -117 -116 -52 -51 -110 -45 -108 -42 -40 -103 -98 -32 -91 -90 -23 -21 -82 -81 -14 -75 -10 -69 -68 -3 0
-62 -124 -59 -56 -117 -116 -51 -112 -45 -107 -42 -105 -36 -98 -93 -28 -89 -25 -22 -82 -81 -15 -76 -10 -69 -68 -2 0
-62 -124 -59 -119 -52 -115 -50 -110 -44 -107 -103 -36 -98 -91 -90 -27 -26 -86 -21 -78 -14 -76 -11 -69 -68 -3 0
-62 -124 -58 -55 -117 -116 -111 -45 -107 -42 -103 -35 -98 -29 -91 -89 -24 -86 -21 -13 -76 -10 -69 -68 -2 0
-62 -124 -59 -117 -116 -52 -51 -48 -110 -108 -44 -40 -103 -98 -32 -91 -90 -23 -21 -82 -81 -13 -75 -10 -69 -68 -3 0
-62 -124 -59 -119 -116 -52 -50 -111 -45 -107 -42 -41 -103 -98 -29 -91 -88 -24 -21 -82 -13 -76 -11 -69 -68 -3 0
-62 -124 -59 -56 -119 -116 -50 -109 -45 -107 -44 -103 -39 -98 -91 -27 -26 -88 -86 -21 -77 -76 -13 -10 -69 -68 -2 0
-64 -124 -59 -117 -52 -115 -50 -47 -109 -108 -44 -40 -103 -98 -33 -91 -90 -26 -21 -82 -80 -14 -76 -11 -72 -68 -3 0
-62 -124 -59 -56 -119 -116 -50 -111 -108 -42 -105 -36 -98 -28 -91 -25 -88 -86 -21 -81 -13 -76 -10 -69 -68 -2 0
-62 -60 -124 -117 -116 -53 -50 -47 -109 -44 -107 -105 -40 -98 -33 -91 -90 -26 -21 -82 -14 -77 -76 -11 -69 -68 -3 0
-64 -124 -59 -117 -52 -115 -50 -47 -109 -108 -43 -40 -103 -98 -31 -93 -90 -23 -21 -82 -80 -14 -76 -11 -69 -68 -3 0
-63 -124 -59 -56 -119 -115 -50 -111 -45 -108 -42 -105 -39 -98 -28 -91 -89 -25 -86 -22 -81 -13 -76 -10 -69 -67 -2 0
-63 -124 -59 -56 -119 -115 -51 -111 -45 -107 -42 -105 -35 -98 -29 -91 -89 -24 -21 -82 -13 -66 -10 -69 -2 0
-62 -124 -59 -117 -116 -52 -51 -47 -109 -108 -42 -103 -35 -98 -29 -91 -89 -24 -22 -82 -14 -11 -69 -68 -3 0
-62 -124 -59 -117 -53 -115 -50 -47 -109 -108 -44 -40 -103 -98 -31 -91 -90 -23 -21 -82 -80 -14 -76 -11 -69 -68 -3 0
-62 -124 -59 -117 -116 -52 -50 -111 -46 -108 -44 -40 -103 -98 -33 -91 -90 -26 -86 -21 -77 -76 -13 -10 -69 -68 -2 0
-62 -60 -124 -119 -116 -52 -50 -47 -109 -108 -44 -103 -36 -98 -32 -91 -90 -23 -21 -82 -80 -14 -76 -11 -69 -68 -3 0
-63 -124 -59 -117 -116 -52 -50 -110 -44 -107 -103 -36 -33 -96 -91 -90 -26 -85 -21 -14 -77 -76 -10 -69 -68 -3 0
-62 -124 -59 -121 -116 -52 -51 -109 -45 -107 -43 -40 -103 -98 -32 -91 -90 -23 -21 -82 -67 -79 -13 -11 -74 -69 -3 0
-62 -124 -59 -117 -116 -52 -50 -110 -108 -44 -40 -103 -98 -32 -91 -90 -23 -21 -82 -14 -74 -10 -69 -68 -3 0
-63 -124 -59 -119 -53 -116 -50 -47 -109 -108 -44 -40 -103 -98 -30 -91 -90 -26 -86 -21 -81 -14 -76 -11 -69 -68 -3 0
-62 -124 -59 -54 -117 -115 -50 -111 -45 -44 -107 -105 -39 -98 -91 -90 -27 -26 -21 -82 -78 -13 -76 -10 -69 -68 -2 0
-64 -124 -59 -56 -117 -116 -51 -111 -45 -108 -42 -41 -103 -98 -93 -29 -24 -87 -21 -82 -14 -76 -11 -69 -68 -2 0
-62 -124 -59 -56 -117 -116 -50 -111 -45 -107 -42 -40 -103 -98 -93 -29 -89 -24 -21 -82 -14 -11 -69 -67 -2 0
-62 -60 -124 -117 -116 -52 -50 -47 -109 -108 -44 -40 -103 -98 -32 -91 -90 -23 -21 -82 -78 -14 -76 -11 -69 -68 -3 0
-62 -124 -59 -56 -119 -116 -50 -111 -45 -108 -42 -105 -40 -98 -31 -91 -90 -23 -86 -21 -80 -13 -76 -10 -69 -68 -2 0
-62 -124 -59 -120 -56 -115 -50 -111 -45 -108 -42 -105 -39 -98 -28 -91 -25 -88 -86 -22 -81 -13 -76 -10 -69 -67 -2 0
-62 -124 -59 -54 -117 -116 -50 -47 -109 -44 -107 -40 -103 -98 -30 -91 -90 -26 -21 -82 -81 -14 -11 -69 -68 -3 0
-62 -124 -59 -117 -116 -52 -50 -109 -108 -45 -42 -105 -36 -97 -31 -91 -88 -23 -21 -82 -81 -14 -76 -10 -69 -68 -3 0
-62 -124 -58 -56 -117 -116 -51 -47 -109 -108 -42 -103 -35 -98 -29 -91 -88 -24 -21 -82 -13 -76 -10 -69 -68 -2 0
-62 -124 -59 -120 -116 -50 -109 -44 -107 -105 -36 -98 -32 -91 -90 -23 -21 -82 -80 -14 -11 -74 -69 -68 -3 0
-62 -124 -59 -55 -117 -116 -51 -47 -109 -107 -43 -103 -36 -98 -32 -91 -90 -23 -86 -21 -81 -67 -14 -11 -69 -3 0
-62 -124 -59 -117 -116 -52 -50 -110 -45 -108 -44 -104 -40 -98 -32 -91 -90 -23 -21 -82 -81 -14 -74 -10 -69 -68 -3 0
-62 -124 -59 -119 -54 -116 -50 -47 -109 -108 -44 -40 -103 -98 -33 -91 -90 -26 -21 -82 -80 -14 -76 -11 -69 -68 -3 0
-62 -124 -59 -117 -116 -52 -51 -47 -109 -44 -107 -40 -103 -98 -30 -91 -90 -26 -21 -82 -80 -14 -76 -11 -69 -68 -3 0
-64 -124 -59 -117 -116 -52 -51 -111 -45 -107 -42 -105 -39 -96 -28 -91 -25 -88 -86 -21 -81 -13 -10 -69 -68 -2 0
-62 -124 -59 -117 -116 -52 -51 -110 -45 -108 -42 -103 -36 -98 -32 -91 -90 -23 -21 -82 -81 -15 -75 -10 -69 -68 -3 0
-62 -124 -59 -117 -116 -53 -50 -110 -45 -108 -44 -103 -36 -98 -34 -91 -90 -26 -22 -82 -80 -14 -76 -10 -69 -68 -3 0
-62 -124 -59 -117 -116 -52 -51 -47 -109 -108 -44 -40 -103 -98 -33 -91 -90 -26 -21 -82 -81 -14 -76 -11 -69 -68 -3 0
-62 -60 -124 -117 -116 -52 -50 -47 -109 -108 -44 -105 -36 -98 -31 -93 -90 -23 -21 -82 -81 -14 -76 -11 -72 -68 -3 0
-62 -124 -59 -119 -116 -52 -50 -111 -45 -108 -42 -104 -40 -98 -29 -91 -88 -24 -21 -82 -67 -13 -76 -11 -69 -3 0
-62 -124 -59 -117 -116 -52 -51 -47 -109 -108 -44 -103 -36 -98 -30 -91 -90 -26 -21 -82 -78 -14 -76 -11 -69 -68 -3 0
-62 -124 -59 -117 -52 -115 -50 -47 -109 -107 -43 -103 -36 -98 -33 -91 -90 -26 -82 -78 -14 -76 -11 -69 -68 -3 0
-62 -124 -59 -56 -119 -115 -50 -111 -45 -107 -42 -105 -36 -98 -28 -91 -25 -88 -86 -22 -81 -13 -76 -10 -69 -68 -2 0
-62 -124 -59 -117 -116 -52 -50 -111 -47 -108 -42 -105 -36 -98 -28 -91 -90 -25 -21 -82 -81 -13 -76 -10 -69 -67 -2 0
-64 -124 -59 -120 -53 -116 -51 -47 -110 -108 -44 -103 -36 -98 -30 -91 -26 -89 -21 -84 -67 -14 -77 -76 -11 -69 -3 0
-62 -124 -59 -117 -116 -52 -51 -111 -45 -108 -44 -40 -103 -98 -32 -91 -88 -23 -21 -83 -80 -13 -76 -10 -69 -68 -2 0
-62 -124 -59 -119 -55 -116 -50 -111 -45 -107 -42 -103 -37 -98 -29 -91 -89 -24 -21 -82 -13 -76 -10 -69 -68 -2 0
-62 -124 -59 -119 -54 -116 -50 -47 -109 -108 -44 -40 -103 -98 -34 -93 -90 -26 -21 -82 -81 -14 -76 -11 -69 -68 -3 0
-62 -124 -59 -117 -116 -53 -50 -47 -109 -108 -44 -40 -103 -98 -30 -91 -90 -26 -85 -21 -80 -14 -76 -11 -69 -68 -3 0
-62 -124 -59 -117 -116 -52 -50 -109 -107 -42 -105 -36 -98 -28 -91 -25 -88 -21 -82 -81 -14 -76 -10 -69 -68 -3 0
-62 -124 -59 -117 -52 -114 -50 -111 -45 -108 -42 -41 -103 -98 -29 -91 -90 -24 -21 -82 -67 -14 -76 -11 -69 -3 0
-62 -124 -59 -117 -116 -52 -50 -110 -108 -44 -105 -36 -98 -32 -91 -90 -23 -22 -84 -78 -14 -74 -10 -69 -68 -3 0
-64 -60 -124 -119 -53 -115 -50 -47 -109 -44 -107 -103 -36 -95 -91 -90 -27 -26 -86 -22 -67 -14 -77 -76 -11 -69 -3 0
-63 -124 -59 -119 -54 -116 -109 -45 -107 -44 -103 -36 -98 -91 -90 -27 -26 -21 -82 -77 -76 -13 -10 -69 -68 -2 0
-62 -124 -59 -119 -116 -52 -50 -111 -108 -44 -103 -36 -98 -93 -27 -26 -88 -21 -82 -77 -76 -13 -10 -69 -68 -2 0
-62 -60 -124 -117 -116 -52 -50 -109 -107 -43 -103 -36 -98 -32 -91 -90 -23 -21 -82 -67 -79 -14 -75 -11 -69 -3 0
-63 -124 -59 -117 -52 -115 -50 -111 -47 -108 -44 -41 -104 -98 -34 -91 -26 -89 -86 -22 -80 -13 -76 -10 -69 -67 -2 0
-62 -124 -59 -54 -117 -116 -50 -47 -109 -44 -107 -103 -36 -98 -30 -91 -90 -26 -21 -82 -80 -14 -76 -11 -69 -68 -3 0
-62 -124 -59 -117 -116 -52 -50 -109 -108 -44 -103 -39 -98 -91 -90 -27 -26 -21 -82 -78 -13 -75 -10 -69 -68 -2 0
-62 -124 -59 -117 -116 -53 -50 -47 -109 -108 -43 -103 -36 -98 -33 -91 -90 -26 -86 -21 -67 -78 -14 -76 -11 -69 -3 0
-62 -124 -59 -56 -119 -115 -50 -111 -45 -107 -42 -105 -36 -98 -28 -91 -89 -25 -86 -22 -81 -13 -76 -10 -72 -68 -2 0
-62 -124 -59 -117 -116 -52 -50 -47 -109 -108 -44 -103 -36 -98 -34 -91 -90 -26 -21 -82 -80 -14 -76 -11 -69 -68 -3 0
-62 -124 -59 -55 -117 -116 -51 -109 -45 -107 -44 -40 -103 -98 -33 -91 -26 -88 -21 -83 -14 -77 -76 -10 -69 -68 -3 0
-62 -124 -59 -117 -116 -52 -51 -47 -109 -107 -43 -40 -103 -97 -32 -91 -90 -23 -86 -21 -67 -14 -77 -76 -11 -69 -3 0
-62 -124 -59 -117 -116 -52 -50 -110 -45 -44 -107 -36 -98 -32 -93 -90 -23 -21 -82 -81 -14 -75 -10 -69 -68 -3 0
-62 -60 -124 -56 -117 -116 -51 -109 -108 -45 -42 -105 -39 -98 -28 -91 -90 -25 -22 -82 -81 -13 -76 -10 -69 -67 -2 0
-62 -124 -59 -54 -117 -116 -50 -111 -45 -108 -42 -105 -36 -98 -28 -91 -90 -25 -86 -22 -81 -13 -76 -10 -69 -67 -2 0
-62 -124 -59 -117 -116 -52 -51 -47 -109 -108 -44 -40 -103 -98 -33 -91 -90 -26 -21 -82 -78 -14 -76 -11 -69 -68 -3 0
-62 -124 -59 -117 -116 -53 -51 -110 -45 -108 -43 -105 -40 -98 -33 -91 -90 -26 -21 -82 -67 -14 -77 -76 -10 -69 -3 0
-62 -124 -59 -56 -117 -116 -50 -111 -45 -107 -42 -105 -40 -97 -32 -91 -90 -23 -86 -21 -81 -13 -74 -10 -69 -67 -2 0
-62 -124 -58 -119 -55 -116 -50 -111 -45 -108 -42 -103 -37 -98 -29 -91 -89 -24 -86 -21 -13 -76 -10 -69 -67 -2 0
-62 -124 -59 -119 -53 -115 -50 -49 -109 -107 -42 -105 -36 -98 -28 -91 -25 -88 -86 -22 -81 -13 -76 -10 -69 -67 -2 0
-62 -124 -59 -117 -116 -53 -50 -109 -44 -107 -40 -103 -98 -30 -91 -90 -26 -21 -82 -80 -14 -76 -10 -69 -68 -3 0
-62 -124 -59 -120 -116 -52 -51 -47 -109 -108 -44 -103 -36 -97 -33 -91 -90 -26 -86 -22 -67 -80 -14 -76 -11 -69 -3 0
-62 -124 -59 -55 -117 -116 -50 -111 -47 -107 -42 -105 -39 -97 -28 -91 -89 -25 -22 -83 -81 -13 -76 -10 -69 -67 -2 0
-62 -124 -59 -121 -53 -116 -50 -111 -45 -107 -42 -105 -36 -98 -28 -91 -90 -25 -22 -82 -81 -13 -76 -10 -69 -67 -2 0
-62 -124 -59 -56 -117 -115 -50 -47 -109 -108 -44 -103 -36 -98 -31 -91 -90 -23 -22 -82 -81 -13 -76 -11 -69 -68 -2 0
-62 -124 -59 -117 -116 -52 -51 -47 -109 -108 -44 -40 -103 -98 -30 -91 -90 -26 -86 -21 -80 -14 -76 -11 -69 -68 -3 0
-62 -124 -59 -117 -116 -52 -50 -47 -109 -108 -44 -40 -103 -98 -30 -91 -90 -26 -21 -82 -80 -14 -76 -11 -69 -68 -3 0
-62 -124 -58 -56 -119 -116 -50 -47 -109 -44 -107 -103 -36 -98 -91 -90 -27 -26 -21 -82 -14 -77 -76 -11 -69 -68 -3 0
-62 -124 -59 -56 -119 -116 -50 -111 -108 -42 -105 -39 -98 -28 -91 -25 -88 -86 -21 -81 -13 -76 -10 -69 -68 -2 0
-62 -124 -59 -117 -116 -52 -50 -109 -108 -44 -40 -103 -98 -34 -91 -90 -26 -21 -82 -80 -14 -11 -69 -68 -3 0
-62 -124 -59 -117 -116 -52 -50 -109 -108 -45 -42 -105 -39 -98 -94 -28 -25 -88 -22 -82 -81 -14 -76 -10 -69 -68 -3 0
-124 -59 -47 -109 -108 -42 -105 -40 -96 -31 -91 -90 -23 -86 -21 -80 -14 -11 -69 -68 0
-62 -124 -59 -119 -116 -52 -51 -47 -109 -108 -43 -105 -40 -98 -33 -91 -26 -21 -82 -67 -14 -77 -76 -10 -69 -3 0
-62 -124 -59 -54 -117 -115 -50 -49 -109 -107 -42 -103 -38 -98 -29 -91 -24 -87 -86 -21 -13 -76 -10 -70 -68 -2 0
-62 -124 -59 -56 -117 -116 -51 -112 -45 -107 -42 -103 -39 -98 -28 -91 -89 -25 -21 -82 -81 -13 -76 -10 -69 -68 -2 0
-62 -124 -59 -119 -54 -116 -50 -111 -45 -107 -42 -103 -35 -96 -29 -91 -90 -24 -86 -21 -13 -76 -10 -69 -68 -2 0
-62 -124 -59 -56 -117 -116 -50 -109 -45 -107 -44 -105 -36 -98 -32 -91 -90 -23 -86 -21 -79 -14 -75 -10 -69 -68 -3 0
-62 -124 -59 -56 -117 -51 -114 -109 -45 -107 -44 -103 -39 -98 -91 -90 -27 -26 -86 -22 -78 -13 -76 -10 -69 -68 -2 0
-62 -124 -59 -117 -53 -115 -50 -109 -107 -42 -103 -35 -96 -29 -91 -88 -24 -86 -21 -13 -76 -10 -69 -68 -2 0
-62 -124 -59 -117 -52 -115 -50 -47 -109 -44 -107 -103 -36 -98 -30 -91 -90 -26 -21 -82 -14 -77 -76 -11 -69 -68 -3 0
-62 -124 -59 -119 -116 -52 -51 -109 -108 -45 -42 -103 -35 -98 -29 -92 -88 -24 -21 -82 -14 -76 -11 -69 -68 -3 0
-62 -60 -124 -117 -116 -53 -50 -47 -109 -108 -44 -105 -36 -98 -33 -91 -90 -26 -21 -82 -14 -77 -76 -11 -69 -68 -3 0
-62 -124 -59 -119 -55 -116 -50 -111 -45 -108 -42 -103 -35 -98 -29 -91 -89 -24 -86 -21 -13 -76 -10 -69 -68 -2 0
-62 -124 -59 -117 -116 -52 -50 -110 -45 -107 -42 -105 -35 -98 -29 -91 -90 -24 -21 -82 -14 -76 -10 -69 -68 -3 0
-62 -124 -59 -56 -119 -116 -51 -111 -45 -108 -42 -105 -36 -95 -31 -91 -90 -23 -86 -21 -81 -13 -76 -10 -69 -68 -2 0
-63 -60 -124 -119 -53 -116 -50 -48 -110 -44 -107 -40 -103 -98 -34 -91 -90 -26 -21 -82 -80 -14 -76 -10 -69 -68 -3 0
-62 -60 -124 -119 -116 -52 -51 -111 -47 -108 -44 -103 -36 -98 -33 -91 -26 -88 -22 -82 -67 -79 -14 -76 -10 -69 -3 0
-62 -124 -58 -117 -116 -52 -51 -47 -109 -44 -107 -103 -36 -98 -91 -27 -89 -26 -21 -82 -67 -78 -14 -76 -11 -69 -3 0
-62 -124 -59 -119 -54 -116 -51 -48 -110 -108 -44 -40 -103 -97 -33 -91 -90 -26 -21 -84 -80 -14 -76 -10 -69 -68 -3 0
-62 -124 -59 -119 -54 -116 -50 -111 -45 -108 -42 -105 -39 -98 -28 -91 -25 -88 -21 -82 -81 -13 -76 -10 -69 -68 -2 0
-62 -124 -59 -56 -117 -116 -50 -111 -45 -108 -44 -40 -103 -34 -96 -91 -90 -26 -86 -22 -78 -13 -76 -10 -72 -68 -2 0
-124 -59 -119 -116 -52 -50 -47 -109 -107 -43 -104 -36 -98 -32 -93 -90 -23 -21 -82 -78 -14 -76 -11 -71 -68 -3 0
-62 -124 -59 -117 -116 -53 -50 -47 -109 -43 -40 -98 -33 -91 -26 -21 -83 -67 -14 -77 -11 -69 -3 0
-62 -124 -59 -56 -117 -116 -50 -111 -45 -108 -42 -104 -36 -98 -32 -91 -90 -23 -86 -21 -80 -13 -74 -10 -69 -67 -2 0
-62 -124 -59 -117 -116 -52 -51 -110 -44 -107 -103 -39 -98 -91 -90 -27 -26 -21 -82 -67 -14 -77 -76 -10 -69 -3 0
-64 -124 -59 -55 -117 -116 -50 -111 -47 -107 -42 -105 -36 -98 -28 -91 -89 -25 -86 -21 -81 -13 -10 -69 -67 -2 0
-62 -124 -59 -117 -116 -52 -51 -111 -45 -44 -107 -103 -39 -96 -91 -90 -27 -26 -86 -22 -77 -13 -10 -69 -67 -2 0
-62 -124 -59 -56 -119 -115 -51 -111 -45 -108 -42 -41 -103 -98 -93 -29 -89 -24 -21 -82 -14 -11 -69 -68 -2 0
-62 -124 -59 -117 -116 -52 -50 -110 -45 -44 -107 -103 -39 -98 -32 -93 -90 -23 -21 -82 -81 -14 -75 -10 -69 -68 -3 0
-62 -124 -59 -56 -117 -115 -50 -109 -45 -107 -42 -105 -40 -98 -32 -91 -88 -23 -86 -21 -80 -13 -75 -10 -69 -68 -2 0
-62 -124 -59 -117 -52 -115 -50 -47 -109 -108 -43 -103 -36 -98 -31 -91 -90 -23 -21 -82 -80 -14 -76 -11 -69 -68 -3 0
-62 -124 -59 -117 -116 -52 -50 -113 -45 -108 -42 -103 -37 -98 -29 -91 -88 -24 -86 -21 -13 -10 -69 -68 -2 0
-62 -124 -59 -54 -117 -116 -50 -111 -45 -108 -42 -105 -39 -98 -28 -91 -90 -25 -22 -82 -13 -76 -10 -69 -67 -2 0
-62 -60 -124 -119 -54 -115 -50 -47 -109 -44 -107 -103 -39 -98 -91 -90 -27 -26 -86 -21 -67 -78 -14 -76 -11 -69 -3 0
-63 -124 -59 -119 -53 -115 -50 -47 -109 -107 -43 -105 -40 -98 -31 -91 -90 -23 -21 -82 -81 -14 -76 -11 -72 -68 -3 0
-64 -60 -124 -119 -53 -116 -50 -48 -110 -108 -44 -103 -36 -98 -34 -91 -90 -26 -21 -82 -80 -14 -76 -10 -69 -68 -3 0
-62 -124 -59 -120 -116 -52 -51 -47 -109 -108 -44 -40 -103 -97 -33 -91 -90 -26 -86 -22 -80 -14 -76 -11 -69 -68 -3 0
-62 -124 -59 -120 -52 -115 -50 -47 -109 -44 -107 -40 -103 -98 -32 -91 -90 -23 -21 -82 -67 -14 -76 -11 -69 -3 0
-62 -124 -59 -117 -116 -52 -50 -109 -108 -44 -103 -36 -98 -34 -91 -90 -26 -21 -82 -79 -14 -11 -69 -68 -3 0
-62 -124 -59 -117 -116 -52 -51 -47 -109 -108 -44 -103 -36 -98 -30 -91 -90 -26 -21 -82 -80 -14 -76 -11 -69 -68 -3 0
-62 -124 -59 -120 -52 -115 -50 -109 -108 -45 -44 -105 -40 -98 -34 -91 -90 -26 -21 -82 -67 -14 -76 -11 -70 -3 0
-62 -60 -124 -117 -116 -53 -51 -109 -107 -42 -105 -40 -98 -32 -91 -90 -23 -86 -21 -67 -78 -14 -75 -10 -69 -3 0
-62 -124 -59 -119 -116 -50 -109 -108 -44 -103 -36 -98 -33 -91 -26 -21 -82 -67 -14 -77 -76 -10 -69 -3 0
-62 -124 -59 -54 -117 -116 -50 -109 -44 -107 -103 -36 -98 -30 -91 -90 -26 -21 -82 -81 -14 -76 -11 -69 -68 -3 0
-61 -124 -59 -119 -52 -115 -50 -109 -44 -107 -103 -36 -98 -30 -91 -90 -26 -21 -82 -67 -80 -14 -76 -11 -69 -3 0
-64 -124 -59 -120 -54 -116 -51 -47 -110 -44 -107 -40 -103 -98 -30 -91 -26 -89 -22 -82 -79 -14 -76 -11 -69 -68 -3 0
-62 -124 -59 -117 -116 -53 -50 -110 -45 -108 -43 -103 -36 -98 -33 -91 -90 -26 -86 -21 -67 -14 -77 -76 -10 -69 -3 0
-61 -124 -59 -119 -53 -115 -50 -47 -109 -108 -43 -105 -40 -98 -32 -91 -90 -23 -21 -84 -78 -14 -75 -11 -70 -68 -3 0
-62 -124 -59 -117 -116 -52 -50 -110 -45 -107 -42 -103 -37 -98 -29 -91 -90 -24 -21 -82 -14 -76 -10 -69 -68 -3 0
-62 -124 -59 -117 -116 -52 -51 -111 -44 -107 -105 -36 -98 -32 -91 -88 -23 -21 -82 -79 -13 -76 -10 -71 -68 -2 0
-62 -124 -59 -120 -53 -115 -50 -47 -109 -44 -107 -40 -103 -98 -30 -91 -90 -26 -21 -82 -14 -77 -76 -11 -69 -68 -3 0
-62 -124 -59 -117 -116 -53 -51 -111 -45 -44 -107 -103 -36 -98 -91 -90 -27 -26 -86 -21 -77 -76 -13 -10 -69 -67 -2 0
-62 -124 -59 -119 -116 -52 -51 -47 -109 -108 -43 -103 -36 -98 -33 -91 -26 -21 -83 -67 -14 -77 -76 -10 -69 -3 0
-62 -124 -59 -56 -117 -114 -50 -111 -45 -107 -42 -105 -36 -98 -28 -91 -90 -25 -21 -82 -81 -13 -76 -10 -69 -67 -2 0
-62 -124 -59 -56 -117 -116 -50 -111 -45 -108 -42 -105 -36 -98 -32 -91 -90 -23 -86 -22 -81 -13 -74 -10 -69 -67 -2 0
-62 -124 -59 -119 -54 -116 -51 -48 -110 -108 -44 -103 -36 -98 -33 -91 -90 -26 -21 -82 -78 -14 -76 -10 -69 -68 -3 0
-62 -124 -59 -117 -52 -114 -50 -47 -109 -108 -42 -40 -103 -98 -31 -91 -90 -23 -21 -82 -79 -14 -76 -11 -69 -68 -3 0
-62 -124 -59 -117 -52 -114 -50 -47 -109 -108 -44 -40 -103 -98 -33 -91 -90 -26 -22 -82 -81 -14 -76 -10 -69 -68 -3 0
-62 -124 -57 -117 -116 -52 -51 -47 -109 -107 -43 -40 -103 -98 -31 -93 -90 -23 -21 -82 -80 -14 -76 -11 -69 -68 -3 0
-62 -124 -59 -117 -116 -52 -50 -109 -45 -107 -42 -105 -36 -98 -28 -91 -90 -25 -22 -82 -81 -13 -76 -10 -69 -68 -2 0
-62 -125 -59 -117 -116 -53 -50 -111 -45 -107 -42 -105 -39 -99 -98 -28 -90 -25 -21 -82 -81 -18 -13 -76 -10 -5 -67 -2 0
-62 -125 -59 -117 -52 -115 -50 -111 -45 -107 -43 -105 -36 -99 -98 -28 -90 -25 -21 -82 -81 -18 -13 -76 -10 -5 -67 -2 0
-62 -125 -59 -117 -116 -53 -50 -48 -110 -108 -44 -40 -103 -99 -34 -95 -90 -26 -86 -21 -20 -81 -67 -14 -76 -10 -3 0
-62 -125 -59 -117 -116 -52 -51 -47 -109 -108 -44 -103 -36 -99 -98 -30 -90 -26 -21 -84 -20 -81 -14 -76 -11 -6 -68 -3 0
-62 -125 -59 -121 -56 -116 -51 -49 -111 -107 -42 -105 -36 -99 -96 -28 -25 -88 -86 -21 -18 -81 -13 -76 -10 -5 -2 0
-62 -125 -60 -54 -117 -116 -51 -47 -109 -108 -44 -103 -36 -98 -34 -90 -26 -21 -20 -82 -67 -79 -14 -76 -11 -5 -3 0
-62 -125 -59 -54 -117 -116 -51 -111 -45 -107 -42 -103 -37 -99 -98 -29 -88 -24 -21 -82 -18 -13 -76 -10 -5 -67 -2 0
-62 -125 -59 -121 -56 -116 -51 -49 -111 -108 -42 -105 -39 -99 -98 -28 -25 -88 -86 -21 -18 -81 -13 -76 -10 -5 -2 0
-64 -125 -59 -56 -117 -116 -51 -111 -45 -107 -42 -103 -99 -98 -35 -29 -88 -24 -21 -82 -18 -13 -76 -10 -5 -67 -2 0
-62 -125 -60 -117 -116 -53 -50 -47 -109 -108 -44 -40 -103 -99 -96 -30 -90 -26 -21 -20 -82 -80 -14 -76 -11 -6 -68 -3 0
-62 -125 -59 -119 -54 -116 -50 -111 -45 -108 -42 -105 -36 -99 -98 -28 -90 -25 -21 -82 -81 -18 -67 -13 -76 -10 -5 -3 0
-62 -125 -59 -119 -54 -116 -51 -47 -109 -108 -44 -103 -36 -99 -98 -30 -90 -26 -22 -19 -82 -80 -14 -76 -11 -5 -68 -3 0
-62 -125 -60 -119 -54 -115 -50 -47 -109 -108 -44 -41 -103 -98 -34 -90 -26 -21 -20 -82 -81 -67 -14 -76 -11 -5 -3 0
-62 -125 -59 -54 -117 -116 -50 -47 -109 -108 -44 -40 -103 -100 -98 -30 -90 -26 -21 -20 -82 -80 -14 -76 -11 -5 -68 -3 0
-62 -125 -59 -54 -117 -116 -50 -47 -109 -108 -44 -103 -100 -36 -98 -30 -90 -26 -21 -20 -82 -80 -14 -76 -11 -5 -68 -3 0
-62 -125 -59 -117 -116 -52 -51 -47 -109 -44 -107 -40 -103 -100 -98 -30 -90 -26 -21 -20 -82 -67 -14 -77 -76 -11 -5 -3 0
-64 -125 -60 -117 -116 -53 -50 -47 -109 -108 -44 -103 -36 -99 -98 -30 -90 -26 -22 -20 -82 -81 -14 -76 -11 -6 -68 -3 0
-62 -125 -59 -117 -116 -52 -51 -47 -109 -44 -107 -40 -103 -99 -98 -30 -90 -26 -21 -20 -82 -79 -14 -76 -11 -6 -68 -3 0
-62 -125 -59 -121 -116 -52 -51 -47 -109 -108 -44 -103 -36 -99 -98 -30 -90 -26 -21 -20 -82 -80 -14 -76 -11 -6 -68 -3 0
-62 -125 -59 -117 -52 -115 -50 -111 -45 -107 -42 -40 -103 -99 -98 -31 -90 -23 -21 -82 -18 -79 -13 -76 -10 -5 -67 -2 0
-62 -125 -59 -117 -116 -52 -50 -47 -109 -108 -44 -103 -36 -99 -98 -30 -90 -26 -22 -20 -82 -79 -14 -76 -11 -6 -68 -3 0
-125 -59 -52 -111 -45 -44 -107 -103 -36 -99 -97 -27 -90 -26 -86 -21 -18 -77 -13 -10 -5 -67 -2 0
-62 -125 -60 -119 -116 -52 -50 -109 -44 -107 -103 -36 -99 -98 -30 -90 -26 -22 -20 -82 -80 -14 -76 -11 -6 -68 -3 0
-62 -125 -59 -117 -52 -115 -50 -47 -109 -44 -107 -103 -100 -36 -98 -30 -90 -26 -21 -20 -82 -81 -14 -76 -11 -5 -68 -3 0
-62 -125 -59 -54 -117 -114 -50 -109 -108 -45 -44 -103 -36 -99 -98 -30 -90 -26 -21 -20 -82 -80 -14 -76 -11 -6 -68 -3 0
-62 -125 -60 -117 -116 -52 -51 -109 -108 -44 -40 -103 -99 -98 -30 -90 -26 -22 -20 -82 -78 -14 -76 -11 -6 -68 -3 0
-62 -125 -59 -117 -116 -52 -50 -47 -109 -107 -43 -40 -103 -99 -98 -32 -90 -23 -21 -20 -82 -78 -14 -76 -11 -6 -68 -3 0
-62 -125 -59 -117 -116 -52 -51 -47 -109 -108 -44 -40 -103 -99 -98 -30 -90 -26 -22 -20 -82 -78 -14 -76 -11 -6 -68 -3 0
-62 -125 -59 -117 -116 -52 -50 -47 -109 -108 -43 -103 -36 -99 -98 -32 -90 -23 -21 -20 -82 -79 -14 -11 -74 -6 -68 -3 0
-125 -59 -121 -116 -52 -51 -47 -109 -108 -44 -40 -103 -99 -98 -30 -90 -26 -21 -20 -82 -67 -80 -14 -76 -11 -6 -3 0
-62 -126 -123 -56 -117 -116 -50 -111 -45 -107 -42 -40 -103 -98 -32 -91 -90 -23 -86 -22 -20 -79 -13 -74 -10 -8 -5 -68 -2 0
-62 -126 -123 -119 -116 -52 -51 -47 -109 -108 -44 -40 -103 -98 -30 -93 -90 -26 -21 -19 -82 -80 -14 -76 -11 -7 -5 -68 -3 0
-62 -126 -122 -117 -116 -52 -50 -47 -109 -108 -44 -40 -103 -98 -30 -91 -90 -26 -22 -20 -82 -80 -14 -76 -11 -7 -6 -68 -3 0
-62 -126 -123 -117 -52 -115 -50 -47 -109 -44 -107 -103 -36 -98 -34 -91 -90 -26 -21 -20 -82 -14 -76 -11 -5 -68 -3 0
-62 -126 -122 -117 -116 -52 -50 -47 -109 -108 -44 -103 -36 -96 -94 -30 -90 -26 -21 -20 -82 -81 -14 -76 -11 -7 -6 -68 -3 0
-62 -126 -123 -117 -116 -52 -50 -47 -109 -107 -43 -103 -35 -98 -32 -93 -90 -23 -21 -20 -82 -79 -14 -11 -74 -7 -6 -68 -3 0
-63 -126 -122 -56 -117 -116 -51 -111 -45 -107 -42 -103 -35 -98 -29 -91 -89 -24 -21 -20 -82 -13 -76 -10 -7 -5 -67 -2 0
-62 -126 -122 -117 -116 -52 -50 -47 -109 -107 -43 -105 -40 -97 -31 -91 -23 -21 -20 -83 -81 -14 -76 -11 -7 -5 -68 -3 0
-62 -126 -122 -119 -116 -52 -51 -49 -109 -108 -44 -103 -36 -98 -33 -93 -90 -26 -22 -20 -82 -67 -14 -77 -76 -11 -7 -5 -3 0
-62 -126 -122 -119 -116 -52 -51 -49 -109 -108 -44 -105 -40 -98 -33 -93 -90 -26 -22 -20 -82 -67 -14 -77 -76 -11 -7 -5 -3 0
-64 -126 -122 -56 -117 -116 -51 -111 -45 -107 -42 -103 -37 -98 -29 -91 -89 -24 -86 -21 -20 -13 -76 -10 -7 -5 -68 -2 0
-64 -126 -122 -117 -116 -53 -51 -111 -45 -44 -107 -103 -36 -95 -91 -90 -27 -26 -86 -22 -20 -78 -13 -76 -10 -5 -67 -2 0
-62 -126 -123 -117 -116 -53 -50 -48 -110 -108 -44 -103 -36 -98 -34 -93 -90 -26 -21 -20 -82 -81 -14 -76 -10 -7 -68 -3 0
-123 -9 -101 -20 -4 -99 127 0
-127 -62 -59 -117 -52 -115 -50 -47 -109 -108 -44 -105 -40 -98 -34 -91 -90 -26 -21 -82 -17 -14 -76 -11 -70 -5 -68 -3 0
-127 -62 -59 -54 -117 -114 -50 -47 -109 -108 -44 -40 -103 -98 -30 -91 -90 -26 -21 -82 -80 -16 -14 -11 -7 -6 -69 -68 -3 0
-127 -62 -59 -117 -52 -115 -50 -47 -109 -44 -107 -40 -103 -98 -30 -91 -90 -26 -69 -86 -21 -16 -78 -14 -76 -11 -7 -5 -68 -3 0
-127 -62 -60 -119 -116 -52 -50 -47 -109 -44 -107 -40 -103 -98 -34 -91 -90 -26 -69 -21 -82 -17 -79 -14 -76 -11 -5 -68 -3 0
-127 -7 -5 124 -17 0
128 -101 -9 -69 -4 -17 0
-128 126 -59 -99 0
-128 -91 -123 -7 125 0
